db/inputs/28883248511028427188390820542944320889.smt2
(set-logic QF_FP)
(declare-const x0 (_ FloatingPoint 11 53))
(declare-const x1 (_ FloatingPoint 11 53))
(declare-const x2 (_ FloatingPoint 11 53))
(declare-const x3 (_ FloatingPoint 11 53))
(declare-const x4 (_ FloatingPoint 11 53))
(declare-const x5 (_ FloatingPoint 11 53))
(declare-const x6 (_ FloatingPoint 11 53))
(declare-const x7 (_ FloatingPoint 11 53))
(declare-const x8 (_ FloatingPoint 11 53))
(declare-const x9 (_ FloatingPoint 11 53))
(declare-const x10 (_ FloatingPoint 11 53))
(declare-const x11 (_ FloatingPoint 11 53))
(declare-const x12 (_ FloatingPoint 11 53))
(declare-const x13 (_ FloatingPoint 11 53))
(assert (fp.lt (fp.mul RNE (fp.div RNE (fp.add RNE (fp.mul RNE x0 x3) (fp.add RNE x5 x7)) (fp.div RNE (fp.add RNE x12 x3) (fp.add RNE x4 x5))) (fp.neg (fp.div RNE (fp.sub RNE x11 x7) (fp.neg x10)))) (fp.mul RNE (fp.add RNE (fp.div RNE (fp.sub RNE x9 x10) (fp.sub RNE x5 x5)) (fp.add RNE (fp.neg x12) (fp.sub RNE x11 x11))) (fp.div RNE (fp.add RNE (fp.sub RNE x1 x10) (fp.sub RNE x11 x3)) (fp.sub RNE (fp.neg x13) (fp.div RNE x1 x12))))))
(check-sat)
