db/data/28883248511028427188390820542944320889.z3.out
-------------------
2500.150444878
